[VALIDATOR STDOUT]
Checking plan: /home/jfan5/Safety-gen/runs/benchmark/optic/blocksworld_20260205_112402/blocksworld/optic_results/bw_ops3_n30_seed30001.plan
Plan executed successfully - checking goal
Plan valid
Final value: 190 

Successful plans:
Value: 190
 /home/jfan5/Safety-gen/runs/benchmark/optic/blocksworld_20260205_112402/blocksworld/optic_results/bw_ops3_n30_seed30001.plan 190
